c User generated cnf file
p cnf 13 20
5 12 -1 0 
2 1 -12 0 
7 -1 10 0 
4 1 -7 0 
6 -1 13 0 
12 6 -13 0 
3 -11 12 0 
5 12 -11 0 
4 13 -1 0 
6 -10 13 0 
1 -7 13 0 
2 2 -10 0 
2 -6 12 0 
6 -7 13 0 
6 7 -2 0 
4 1 -12 0 
13 -6 11 0 
1 -3 2 0 
5 -8 12 0 
2 -12 10 0 
